33D32945 STP File, STP Format Version 1.0

SECTION Comments
Name "carioca_3_11_05"
Creator "Marcia Fampa, Jon Lee & Wendel Melo"
Problem "Euclidean Steiner Tree Problem"
Remark "Converted automatically"
END

SECTION Graph
Nodes 11
END

SECTION Coordinates
DDD 1 0.83780022000000 0.22227496000000 0.47658340000000 
DDD 2 0.75449821000000 0.04899808000000 0.14226974000000 
DDD 3 0.82710354000000 0.41366892000000 0.37283258000000 
DDD 4 0.09069683000000 0.08786056000000 0.53091710000000 
DDD 5 0.14285620000000 0.05200784000000 0.83396246000000 
DDD 6 0.13221872000000 0.73586489000000 0.76425359000000 
DDD 7 0.54022143000000 0.47796545000000 0.38262683000000 
DDD 8 0.37678298000000 0.19704236000000 0.64901266000000 
DDD 9 0.38648208000000 0.70529289000000 0.70097577000000 
DDD 10 0.42202908000000 0.21693584000000 0.86613648000000 
DDD 11 0.15133773000000 0.99903122000000 0.55831163000000 
END

EOF
